% seed = 4614754

mint = 61;
% maxt = 211;

nActs = 42;
dur = [0,9,6,3,8,1,9,9,2,10,6,7,2,9,2,10,2,3,1,5,2,5,4,3,10,2,7,10,4,1,8,10,3,1,9,7,1,2,7,1,10,0];

nSkills = 4;
sreq = [| 0,0,0,0,
	| 0,0,7,5,
	| 3,0,2,0,
	| 3,0,0,5,
	| 4,5,0,0,
	| 3,4,0,0,
	| 0,6,2,0,
	| 0,3,0,7,
	| 5,0,0,3,
	| 3,7,0,0,
	| 2,0,0,2,
	| 4,7,0,0,
	| 4,0,6,0,
	| 2,0,0,3,
	| 0,4,5,0,
	| 5,0,2,0,
	| 2,0,0,4,
	| 0,3,0,6,
	| 3,0,4,0,
	| 4,7,0,0,
	| 7,6,0,0,
	| 4,0,0,2,
	| 0,4,0,7,
	| 1,7,0,0,
	| 6,5,0,0,
	| 0,0,4,3,
	| 5,0,0,5,
	| 4,0,1,0,
	| 2,0,0,4,
	| 0,3,2,0,
	| 2,4,0,0,
	| 0,3,2,0,
	| 4,0,0,3,
	| 0,7,0,7,
	| 4,0,0,3,
	| 2,0,6,0,
	| 3,0,0,3,
	| 0,0,5,4,
	| 0,0,2,7,
	| 0,2,3,0,
	| 3,0,0,3,
	| 0,0,0,0, |];

nResources = 25;
mastery = [| true,true,false,true,
	| true,true,false,false,
	| false,true,false,false,
	| false,true,true,true,
	| false,false,false,true,
	| true,true,false,false,
	| true,false,true,true,
	| true,true,false,true,
	| true,false,false,true,
	| true,true,true,false,
	| false,true,true,true,
	| true,false,false,false,
	| true,false,false,false,
	| false,true,true,true,
	| true,false,true,false,
	| true,true,false,true,
	| false,true,false,false,
	| false,false,true,false,
	| false,false,true,false,
	| false,true,false,false,
	| true,true,false,true,
	| false,true,true,false,
	| true,false,false,false,
	| false,true,false,false,
	| true,true,false,false, |];

nPrecs = 73;
pred = [1,1,1,2,2,2,3,3,3,4,4,4,5,5,5,6,6,7,7,7,8,8,9,9,10,10,10,11,12,12,12,13,13,14,14,15,16,16,16,17,18,19,19,20,21,22,22,22,23,23,24,24,25,26,27,28,28,29,30,30,31,32,33,34,35,35,36,36,37,38,39,40,41];
succ = [2,3,4,34,27,6,20,5,24,19,15,7,10,38,23,24,8,9,33,8,11,14,29,22,28,12,16,25,35,13,32,37,15,18,22,39,17,18,30,29,21,41,21,29,34,26,38,31,25,31,33,26,32,41,35,41,34,36,36,31,32,37,36,35,37,40,39,40,39,40,42,42,42];

nUnrels = 468;
unpred = [2,2,2,2,2,2,2,2,2,2,2,2,2,2,2,2,2,3,3,3,3,3,3,3,3,3,3,4,4,4,4,4,4,4,4,4,4,4,4,4,5,5,5,5,5,5,5,5,5,5,5,5,5,6,6,6,6,6,6,6,6,6,6,6,6,6,6,6,7,7,7,7,7,7,7,7,7,7,7,7,7,8,8,8,8,8,8,8,8,8,8,8,8,8,8,8,8,8,9,9,9,9,9,9,9,9,9,9,9,9,9,9,9,9,9,9,9,9,9,10,10,10,10,10,10,10,10,10,10,10,10,11,11,11,11,11,11,11,11,11,11,11,11,11,11,11,11,11,11,11,11,11,11,11,11,11,11,12,12,12,12,12,12,12,12,12,12,12,12,12,12,12,12,12,12,12,12,12,12,13,13,13,13,13,13,13,13,13,13,13,13,13,13,13,13,13,13,13,13,13,13,13,13,13,14,14,14,14,14,14,14,14,14,14,14,14,14,14,15,15,15,15,15,15,15,15,15,15,15,15,15,15,15,15,15,15,15,15,15,15,15,15,15,16,16,16,16,16,16,16,16,16,16,16,16,17,17,17,17,17,17,17,17,17,17,17,17,17,17,17,17,17,17,17,17,18,18,18,18,18,18,18,18,18,18,18,18,18,18,18,18,18,19,19,19,19,19,19,19,19,19,19,19,19,19,19,19,20,20,20,20,20,20,20,20,20,20,20,20,20,20,20,20,20,21,21,21,21,21,21,21,21,21,21,21,21,21,21,21,22,22,22,22,22,22,22,22,22,22,22,23,23,23,23,23,23,23,23,23,23,23,23,23,24,24,24,24,24,24,24,24,24,24,24,25,25,25,25,25,25,25,25,25,25,25,25,25,26,26,26,26,26,26,26,26,26,26,26,26,26,26,27,27,27,27,27,27,27,27,27,27,28,28,28,28,28,28,28,29,29,29,29,29,29,29,29,29,30,30,30,30,30,31,31,31,31,31,31,31,32,32,32,32,32,32,32,33,33,33,33,33,34,34,34,35,35,35,36,36,36,37,37,37,38,38,39,39,40];
unsucc = [3,4,5,7,9,10,12,13,15,16,17,19,20,23,28,29,30,4,6,7,8,9,11,14,19,22,27,5,6,10,12,13,16,17,20,23,24,27,28,30,6,7,8,9,11,14,19,20,22,24,26,27,33,7,9,10,12,13,15,16,17,19,20,23,27,28,29,30,10,12,13,15,16,17,19,20,23,24,27,28,30,9,10,12,13,15,16,17,19,20,23,24,27,28,29,30,33,36,10,11,12,13,14,15,16,17,18,19,20,21,23,24,25,27,28,30,33,34,35,11,14,19,20,22,23,24,25,26,27,33,38,12,13,14,15,16,17,18,19,20,21,22,23,24,26,27,28,29,30,31,33,34,35,36,38,40,41,14,16,17,18,19,20,21,22,23,24,25,26,27,28,29,30,31,33,34,36,38,41,14,16,17,18,19,20,21,22,23,24,25,26,27,28,29,30,31,32,33,34,35,36,38,40,41,15,16,17,19,20,23,24,25,27,28,29,30,33,36,16,17,18,19,20,21,22,23,24,25,26,27,28,29,30,31,32,33,34,35,36,37,38,40,41,19,20,22,23,24,25,26,27,28,33,38,41,18,19,20,21,22,23,24,25,26,27,28,30,31,32,33,34,35,37,38,41,19,20,22,23,24,25,26,27,28,29,30,31,32,33,36,38,41,20,22,23,24,25,26,27,28,29,30,31,32,33,36,38,21,22,23,24,25,26,27,28,30,31,32,33,34,35,37,38,41,22,23,24,25,26,27,28,29,30,31,32,33,36,38,41,23,24,25,27,28,29,30,33,34,35,36,24,26,27,28,29,30,33,34,35,36,38,40,41,25,27,28,29,30,31,32,34,35,37,38,26,27,28,29,30,31,33,34,35,36,38,40,41,27,28,29,30,31,32,33,34,35,36,37,38,39,40,28,29,30,31,32,33,34,36,38,41,29,30,31,32,33,36,38,30,31,32,33,34,35,37,38,41,33,34,35,38,41,33,34,35,36,38,40,41,33,34,35,36,38,40,41,34,35,37,38,41,36,38,41,36,38,41,37,38,41,38,40,41,39,41,40,41,41];

USEFUL_RES = [{},
	{1,4,5,7,8,9,10,11,14,15,16,18,19,21,22},
	{1,2,4,6,7,8,9,10,11,12,13,14,15,16,18,19,21,22,23,25},
	{1,2,4,5,6,7,8,9,10,11,12,13,14,15,16,21,23,25},
	{1,2,3,4,6,7,8,9,10,11,12,13,14,15,16,17,20,21,22,23,24,25},
	{1,2,3,4,6,7,8,9,10,11,12,13,14,15,16,17,20,21,22,23,24,25},
	{1,2,3,4,6,7,8,10,11,14,15,16,17,18,19,20,21,22,24,25},
	{1,2,3,4,5,6,7,8,9,10,11,14,16,17,20,21,22,24,25},
	{1,2,4,5,6,7,8,9,10,11,12,13,14,15,16,21,23,25},
	{1,2,3,4,6,7,8,9,10,11,12,13,14,15,16,17,20,21,22,23,24,25},
	{1,2,4,5,6,7,8,9,10,11,12,13,14,15,16,21,23,25},
	{1,2,3,4,6,7,8,9,10,11,12,13,14,15,16,17,20,21,22,23,24,25},
	{1,2,4,6,7,8,9,10,11,12,13,14,15,16,18,19,21,22,23,25},
	{1,2,4,5,6,7,8,9,10,11,12,13,14,15,16,21,23,25},
	{1,2,3,4,6,7,8,10,11,14,15,16,17,18,19,20,21,22,24,25},
	{1,2,4,6,7,8,9,10,11,12,13,14,15,16,18,19,21,22,23,25},
	{1,2,4,5,6,7,8,9,10,11,12,13,14,15,16,21,23,25},
	{1,2,3,4,5,6,7,8,9,10,11,14,16,17,20,21,22,24,25},
	{1,2,4,6,7,8,9,10,11,12,13,14,15,16,18,19,21,22,23,25},
	{1,2,3,4,6,7,8,9,10,11,12,13,14,15,16,17,20,21,22,23,24,25},
	{1,2,3,4,6,7,8,9,10,11,12,13,14,15,16,17,20,21,22,23,24,25},
	{1,2,4,5,6,7,8,9,10,11,12,13,14,15,16,21,23,25},
	{1,2,3,4,5,6,7,8,9,10,11,14,16,17,20,21,22,24,25},
	{1,2,3,4,6,7,8,9,10,11,12,13,14,15,16,17,20,21,22,23,24,25},
	{1,2,3,4,6,7,8,9,10,11,12,13,14,15,16,17,20,21,22,23,24,25},
	{1,4,5,7,8,9,10,11,14,15,16,18,19,21,22},
	{1,2,4,5,6,7,8,9,10,11,12,13,14,15,16,21,23,25},
	{1,2,4,6,7,8,9,10,11,12,13,14,15,16,18,19,21,22,23,25},
	{1,2,4,5,6,7,8,9,10,11,12,13,14,15,16,21,23,25},
	{1,2,3,4,6,7,8,10,11,14,15,16,17,18,19,20,21,22,24,25},
	{1,2,3,4,6,7,8,9,10,11,12,13,14,15,16,17,20,21,22,23,24,25},
	{1,2,3,4,6,7,8,10,11,14,15,16,17,18,19,20,21,22,24,25},
	{1,2,4,5,6,7,8,9,10,11,12,13,14,15,16,21,23,25},
	{1,2,3,4,5,6,7,8,9,10,11,14,16,17,20,21,22,24,25},
	{1,2,4,5,6,7,8,9,10,11,12,13,14,15,16,21,23,25},
	{1,2,4,6,7,8,9,10,11,12,13,14,15,16,18,19,21,22,23,25},
	{1,2,4,5,6,7,8,9,10,11,12,13,14,15,16,21,23,25},
	{1,4,5,7,8,9,10,11,14,15,16,18,19,21,22},
	{1,4,5,7,8,9,10,11,14,15,16,18,19,21,22},
	{1,2,3,4,6,7,8,10,11,14,15,16,17,18,19,20,21,22,24,25},
	{1,2,4,5,6,7,8,9,10,11,12,13,14,15,16,21,23,25},
	{}];

POTENTIAL_ACT = [{2,3,4,5,6,7,8,9,10,11,12,13,14,15,16,17,18,19,20,21,22,23,24,25,26,27,28,29,30,31,32,33,34,35,36,37,38,39,40,41},
	{3,4,5,6,7,8,9,10,11,12,13,14,15,16,17,18,19,20,21,22,23,24,25,27,28,29,30,31,32,33,34,35,36,37,40,41},
	{5,6,7,8,10,12,15,18,20,21,23,24,25,30,31,32,34,40},
	{2,3,4,5,6,7,8,9,10,11,12,13,14,15,16,17,18,19,20,21,22,23,24,25,26,27,28,29,30,31,32,33,34,35,36,37,38,39,40,41},
	{2,4,8,9,11,14,17,18,22,23,26,27,29,33,34,35,37,38,39,41},
	{3,4,5,6,7,8,9,10,11,12,13,14,15,16,17,18,19,20,21,22,23,24,25,27,28,29,30,31,32,33,34,35,36,37,40,41},
	{2,3,4,5,6,7,8,9,10,11,12,13,14,15,16,17,18,19,20,21,22,23,24,25,26,27,28,29,30,31,32,33,34,35,36,37,38,39,40,41},
	{2,3,4,5,6,7,8,9,10,11,12,13,14,15,16,17,18,19,20,21,22,23,24,25,26,27,28,29,30,31,32,33,34,35,36,37,38,39,40,41},
	{2,3,4,5,6,8,9,10,11,12,13,14,16,17,18,19,20,21,22,23,24,25,26,27,28,29,31,33,34,35,36,37,38,39,41},
	{2,3,4,5,6,7,8,9,10,11,12,13,14,15,16,17,18,19,20,21,22,23,24,25,26,27,28,29,30,31,32,33,34,35,36,37,38,39,40,41},
	{2,3,4,5,6,7,8,9,10,11,12,13,14,15,16,17,18,19,20,21,22,23,24,25,26,27,28,29,30,31,32,33,34,35,36,37,38,39,40,41},
	{3,4,5,6,9,10,11,12,13,14,16,17,19,20,21,22,24,25,27,28,29,31,33,35,36,37,41},
	{3,4,5,6,9,10,11,12,13,14,16,17,19,20,21,22,24,25,27,28,29,31,33,35,36,37,41},
	{2,3,4,5,6,7,8,9,10,11,12,13,14,15,16,17,18,19,20,21,22,23,24,25,26,27,28,29,30,31,32,33,34,35,36,37,38,39,40,41},
	{2,3,4,5,6,7,9,10,11,12,13,14,15,16,17,19,20,21,22,24,25,26,27,28,29,30,31,32,33,35,36,37,38,39,40,41},
	{2,3,4,5,6,7,8,9,10,11,12,13,14,15,16,17,18,19,20,21,22,23,24,25,26,27,28,29,30,31,32,33,34,35,36,37,38,39,40,41},
	{5,6,7,8,10,12,15,18,20,21,23,24,25,30,31,32,34,40},
	{2,3,7,13,15,16,19,26,28,30,32,36,38,39,40},
	{2,3,7,13,15,16,19,26,28,30,32,36,38,39,40},
	{5,6,7,8,10,12,15,18,20,21,23,24,25,30,31,32,34,40},
	{2,3,4,5,6,7,8,9,10,11,12,13,14,15,16,17,18,19,20,21,22,23,24,25,26,27,28,29,30,31,32,33,34,35,36,37,38,39,40,41},
	{2,3,5,6,7,8,10,12,13,15,16,18,19,20,21,23,24,25,26,28,30,31,32,34,36,38,39,40},
	{3,4,5,6,9,10,11,12,13,14,16,17,19,20,21,22,24,25,27,28,29,31,33,35,36,37,41},
	{5,6,7,8,10,12,15,18,20,21,23,24,25,30,31,32,34,40},
	{3,4,5,6,7,8,9,10,11,12,13,14,15,16,17,18,19,20,21,22,23,24,25,27,28,29,30,31,32,33,34,35,36,37,40,41}];
